50

99 10 297
99 8 297
96 12 288
96 17 299
92 11 295
92 16 300
91 23 283
88 23 275
87 12 295
86 20 292
85 9 258
76 14 238
74 20 282
72 16 261
69 5 218
67 7 255
67 1 255
62 1 264
61 14 263
56 11 264
52 1 196
51 13 202
49 11 285
46 8 295
44 7 259
42 12 284
40 5 182
40 8 280
33 10 250
33 3 223
30 2 284
30 9 277
29 5 283
28 1 225
28 5 237
27 4 186
25 6 105
24 5 284
23 1 297
22 2 197
21 6 126
20 5 148
17 6 192
14 1 261
13 4 98
11 1 37
10 3 161
7 1 234
7 3 246
3 1 191
